NAME 
ROWS
 N  OBJ
 L  R0      
 L  R1      
 E  R2      
 E  R3      
 E  R4      
 E  R5      
 E  R6      
 E  R7      
 E  R8      
 E  R9      
 E  R10     
 E  R11     
 E  R12     
 E  R13     
 E  R14     
 E  R15     
 E  R16     
 E  R17     
 E  R18     
 E  R19     
 E  R20     
 E  R21     
 E  R22     
 E  R23     
 E  R24     
 E  R25     
 E  R26     
COLUMNS
    MARKER    'MARKER'                 'INTORG'
    I0(12)    OBJ       -16
    I0(12)    R0        43
    I0(12)    R1        -92
    I0(12)    R2        4
    I0(12)    R4        18
    I0(12)    R6        9
    I0(12)    R9        12
    I0(12)    R11       6
    I0(12)    R12       6
    I0(12)    R13       10
    I0(12)    R14       6
    I0(12)    R16       -1
    I0(12)    R26       1
    I1(12)    OBJ       157
    I1(12)    R0        -49
    I1(12)    R1        -131
    I1(12)    R2        7
    I1(12)    R4        16
    I1(12)    R5        8
    I1(12)    R7        16
    I1(12)    R10       8
    I1(12)    R13       4
    I1(12)    R14       6
    I1(12)    R15       13
    I1(12)    R16       5
    I1(12)    R26       1
    I2(13)    OBJ       -89
    I2(13)    R0        35
    I2(13)    R1        94
    I2(13)    R2        11
    I2(13)    R4        -1
    I2(13)    R5        5
    I2(13)    R7        7
    I2(13)    R8        13
    I2(13)    R10       17
    I2(13)    R12       3
    I2(13)    R13       1
    I2(13)    R15       11
    I2(13)    R16       2
    I2(13)    R26       1
    I3(12)    OBJ       -166
    I3(12)    R0        -83
    I3(12)    R1        -5
    I3(12)    R2        7
    I3(12)    R3        12
    I3(12)    R4        6
    I3(12)    R7        18
    I3(12)    R8        6
    I3(12)    R10       19
    I3(12)    R11       1
    I3(12)    R12       13
    I3(12)    R15       19
    I3(12)    R26       1
    I4(12)    OBJ       -22
    I4(12)    R0        23
    I4(12)    R1        7
    I4(12)    R3        6
    I4(12)    R4        4
    I4(12)    R5        10
    I4(12)    R6        18
    I4(12)    R9        9
    I4(12)    R10       19
    I4(12)    R11       1
    I4(12)    R14       19
    I4(12)    R15       5
    I4(12)    R26       1
    I5(12)    OBJ       66
    I5(12)    R0        -179
    I5(12)    R1        -169
    I5(12)    R2        10
    I5(12)    R3        5
    I5(12)    R4        -1
    I5(12)    R6        14
    I5(12)    R8        14
    I5(12)    R9        7
    I5(12)    R13       4
    I5(12)    R15       18
    I5(12)    R16       7
    I5(12)    R26       1
    I6(12)    OBJ       74
    I6(12)    R0        -15
    I6(12)    R1        18
    I6(12)    R5        15
    I6(12)    R6        16
    I6(12)    R9        5
    I6(12)    R11       -1
    I6(12)    R12       6
    I6(12)    R13       14
    I6(12)    R14       4
    I6(12)    R15       4
    I6(12)    R16       10
    I6(12)    R26       1
    I7(11)    OBJ       -146
    I7(11)    R0        -91
    I7(11)    R1        73
    I7(11)    R2        1
    I7(11)    R7        15
    I7(11)    R9        18
    I7(11)    R10       4
    I7(11)    R11       16
    I7(11)    R14       4
    I7(11)    R15       13
    I7(11)    R16       18
    I7(11)    R26       1
    I8(15)    OBJ       -36
    I8(15)    R0        104
    I8(15)    R1        -34
    I8(15)    R2        11
    I8(15)    R4        10
    I8(15)    R5        14
    I8(15)    R6        13
    I8(15)    R7        1
    I8(15)    R8        1
    I8(15)    R9        9
    I8(15)    R10       11
    I8(15)    R11       2
    I8(15)    R12       8
    I8(15)    R15       6
    I8(15)    R16       8
    I8(15)    R26       1
    I9(15)    OBJ       -188
    I9(15)    R0        113
    I9(15)    R1        -75
    I9(15)    R2        14
    I9(15)    R3        13
    I9(15)    R4        14
    I9(15)    R5        2
    I9(15)    R7        7
    I9(15)    R8        18
    I9(15)    R9        17
    I9(15)    R10       15
    I9(15)    R11       4
    I9(15)    R13       10
    I9(15)    R14       4
    I9(15)    R16       4
    I9(15)    R26       1
    I10(12)   OBJ       79
    I10(12)   R0        160
    I10(12)   R1        178
    I10(12)   R2        1
    I10(12)   R5        18
    I10(12)   R6        10
    I10(12)   R7        13
    I10(12)   R9        5
    I10(12)   R10       11
    I10(12)   R11       18
    I10(12)   R15       5
    I10(12)   R16       12
    I10(12)   R26       1
    I11(12)   OBJ       77
    I11(12)   R0        -19
    I11(12)   R1        36
    I11(12)   R3        9
    I11(12)   R7        12
    I11(12)   R8        14
    I11(12)   R9        4
    I11(12)   R10       7
    I11(12)   R11       13
    I11(12)   R12       15
    I11(12)   R14       13
    I11(12)   R16       19
    I11(12)   R26       1
    I12(13)   OBJ       24
    I12(13)   R0        -22
    I12(13)   R1        15
    I12(13)   R2        13
    I12(13)   R3        6
    I12(13)   R5        14
    I12(13)   R7        16
    I12(13)   R8        12
    I12(13)   R9        14
    I12(13)   R10       5
    I12(13)   R11       5
    I12(13)   R15       11
    I12(13)   R16       5
    I12(13)   R26       1
    I13(14)   OBJ       -169
    I13(14)   R0        122
    I13(14)   R1        177
    I13(14)   R2        -1
    I13(14)   R4        6
    I13(14)   R6        19
    I13(14)   R7        9
    I13(14)   R8        12
    I13(14)   R9        4
    I13(14)   R10       7
    I13(14)   R11       8
    I13(14)   R13       -1
    I13(14)   R14       7
    I13(14)   R16       5
    I13(14)   R26       1
    I14(14)   OBJ       -15
    I14(14)   R0        -106
    I14(14)   R1        -133
    I14(14)   R2        9
    I14(14)   R3        15
    I14(14)   R5        12
    I14(14)   R6        18
    I14(14)   R7        19
    I14(14)   R8        19
    I14(14)   R10       19
    I14(14)   R11       6
    I14(14)   R12       2
    I14(14)   R13       16
    I14(14)   R15       10
    I14(14)   R26       1
    MARKER    'MARKER'                 'INTEND'
    C15(14)   OBJ       -10
    C15(14)   R1        -7
    C15(14)   R4        16
    C15(14)   R5        16
    C15(14)   R7        17
    C15(14)   R8        7
    C15(14)   R9        13
    C15(14)   R10       12
    C15(14)   R12       -1
    C15(14)   R13       5
    C15(14)   R15       11
    C15(14)   R18       11
    C15(14)   R23       18
    C15(14)   R24       18
    C15(14)   R25       14
    C16(21)   OBJ       5
    C16(21)   R0        4
    C16(21)   R1        9
    C16(21)   R2        11
    C16(21)   R3        5
    C16(21)   R6        18
    C16(21)   R8        7
    C16(21)   R10       -1
    C16(21)   R11       7
    C16(21)   R12       -1
    C16(21)   R13       1
    C16(21)   R14       10
    C16(21)   R15       19
    C16(21)   R16       12
    C16(21)   R17       9
    C16(21)   R18       9
    C16(21)   R19       3
    C16(21)   R20       14
    C16(21)   R22       4
    C16(21)   R23       15
    C16(21)   R24       19
    C16(21)   R25       3
    C17(17)   OBJ       6
    C17(17)   R0        -2
    C17(17)   R1        -4
    C17(17)   R2        10
    C17(17)   R3        18
    C17(17)   R6        8
    C17(17)   R7        3
    C17(17)   R8        9
    C17(17)   R13       11
    C17(17)   R14       8
    C17(17)   R15       12
    C17(17)   R16       6
    C17(17)   R18       1
    C17(17)   R20       18
    C17(17)   R21       10
    C17(17)   R23       14
    C17(17)   R24       7
    C17(17)   R25       5
    C18(19)   OBJ       -3
    C18(19)   R0        4
    C18(19)   R1        -9
    C18(19)   R3        5
    C18(19)   R4        11
    C18(19)   R5        9
    C18(19)   R6        18
    C18(19)   R7        17
    C18(19)   R8        16
    C18(19)   R11       16
    C18(19)   R12       -1
    C18(19)   R13       2
    C18(19)   R15       17
    C18(19)   R16       18
    C18(19)   R17       15
    C18(19)   R18       14
    C18(19)   R19       12
    C18(19)   R20       -1
    C18(19)   R22       1
    C18(19)   R23       1
    C19(14)   OBJ       5
    C19(14)   R0        -6
    C19(14)   R1        6
    C19(14)   R2        4
    C19(14)   R3        5
    C19(14)   R5        11
    C19(14)   R6        2
    C19(14)   R7        12
    C19(14)   R8        11
    C19(14)   R9        8
    C19(14)   R10       7
    C19(14)   R14       7
    C19(14)   R22       11
    C19(14)   R24       13
    C19(14)   R25       9
    C20(15)   OBJ       -2
    C20(15)   R0        7
    C20(15)   R1        -7
    C20(15)   R4        10
    C20(15)   R5        11
    C20(15)   R6        14
    C20(15)   R8        4
    C20(15)   R9        11
    C20(15)   R11       7
    C20(15)   R13       3
    C20(15)   R14       19
    C20(15)   R15       9
    C20(15)   R16       13
    C20(15)   R19       3
    C20(15)   R21       12
    C20(15)   R25       10
    C21(20)   OBJ       6
    C21(20)   R0        9
    C21(20)   R1        -4
    C21(20)   R2        4
    C21(20)   R3        6
    C21(20)   R4        16
    C21(20)   R6        15
    C21(20)   R8        18
    C21(20)   R9        19
    C21(20)   R10       1
    C21(20)   R11       12
    C21(20)   R13       12
    C21(20)   R14       11
    C21(20)   R15       4
    C21(20)   R17       19
    C21(20)   R18       18
    C21(20)   R19       14
    C21(20)   R20       11
    C21(20)   R21       16
    C21(20)   R22       15
    C21(20)   R24       15
    C22(20)   OBJ       5
    C22(20)   R0        9
    C22(20)   R1        -9
    C22(20)   R2        14
    C22(20)   R3        7
    C22(20)   R4        13
    C22(20)   R6        19
    C22(20)   R7        2
    C22(20)   R8        6
    C22(20)   R9        10
    C22(20)   R12       15
    C22(20)   R13       6
    C22(20)   R15       5
    C22(20)   R16       6
    C22(20)   R17       17
    C22(20)   R18       6
    C22(20)   R19       10
    C22(20)   R20       14
    C22(20)   R21       17
    C22(20)   R23       19
    C22(20)   R25       -1
    C23(14)   OBJ       7
    C23(14)   R0        9
    C23(14)   R1        -9
    C23(14)   R2        9
    C23(14)   R3        13
    C23(14)   R4        12
    C23(14)   R5        10
    C23(14)   R6        14
    C23(14)   R9        14
    C23(14)   R11       -1
    C23(14)   R15       1
    C23(14)   R17       8
    C23(14)   R19       14
    C23(14)   R23       3
    C23(14)   R25       18
    C24(16)   R0        -4
    C24(16)   R1        9
    C24(16)   R2        16
    C24(16)   R6        5
    C24(16)   R7        -1
    C24(16)   R9        14
    C24(16)   R11       1
    C24(16)   R15       2
    C24(16)   R17       16
    C24(16)   R18       10
    C24(16)   R20       12
    C24(16)   R21       10
    C24(16)   R22       13
    C24(16)   R23       8
    C24(16)   R24       7
    C24(16)   R25       4
    C25(1)    R2        1
    C26(1)    R3        1
    C27(1)    R4        1
    C28(1)    R5        1
    C29(1)    R6        1
    C30(1)    R7        1
    C31(1)    R8        1
    C32(1)    R9        1
    C33(1)    R10       1
    C34(1)    R11       1
    C35(1)    R12       1
    C36(1)    R13       1
    C37(1)    R14       1
    C38(1)    R15       1
    C39(1)    R16       1
    C40(1)    R17       1
    C41(1)    R18       1
    C42(1)    R19       1
    C43(1)    R20       1
    C44(1)    R21       1
    C45(1)    R22       1
    C46(1)    R23       1
    C47(1)    R24       1
    C48(1)    R25       1
    C49(1)    R26       1
RHS
    RHS1      R0        96
    RHS1      R1        261
    RHS1      R2        69
    RHS1      R3        83
    RHS1      R4        77
    RHS1      R5        90
    RHS1      R6        67
    RHS1      R7        87
    RHS1      R8        52
    RHS1      R9        61
    RHS1      R10       71
    RHS1      R11       63
    RHS1      R12       89
    RHS1      R13       54
    RHS1      R14       63
    RHS1      R15       67
    RHS1      R16       59
    RHS1      R17       97
    RHS1      R18       55
    RHS1      R19       62
    RHS1      R20       68
    RHS1      R21       62
    RHS1      R22       61
    RHS1      R23       55
    RHS1      R24       98
    RHS1      R25       53
    RHS1      R26       5
BOUNDS
 UP BND1      I0(12)    1
 UP BND1      I1(12)    1
 UP BND1      I2(13)    1
 UP BND1      I3(12)    1
 UP BND1      I4(12)    1
 UP BND1      I5(12)    1
 UP BND1      I6(12)    1
 UP BND1      I7(11)    1
 UP BND1      I8(15)    1
 UP BND1      I9(15)    1
 UP BND1      I10(12)   1
 UP BND1      I11(12)   1
 UP BND1      I12(13)   1
 UP BND1      I13(14)   1
 UP BND1      I14(14)   1
ENDATA
